p cnf 28 118
-5 -25 0
-6 -26 0
-7 -27 0
-8 -28 0
-13 -21 0
-14 -22 0
-15 -23 0
-16 -24 0
-9 -25 0
-10 -26 0
-11 -27 0
-12 -28 0
-1 -17 0
-2 -18 0
-3 -19 0
-4 -20 0
-1 -21 0
-2 -22 0
-3 -23 0
-4 -24 0
-1 -25 0
-2 -26 0
-3 -27 0
-4 -28 0
-21 -25 0
-22 -26 0
-23 -27 0
-24 -28 0
-17 -21 0
-18 -22 0
-19 -23 0
-20 -24 0
-13 -17 0
-14 -18 0
-15 -19 0
-16 -20 0
-9 -13 0
-10 -14 0
-11 -15 0
-12 -16 0
-5 -9 0
-6 -10 0
-7 -11 0
-8 -12 0
-1 -5 0
-2 -6 0
-3 -7 0
-4 -8 0
25 26 27 28 0
-7 -26 0
-13 -27 0
-19 -28 0
-25 -29 0
-14 -27 0
-20 -28 0
-26 -29 0
-21 -28 0
-27 -29 0
21 22 23 24 0
-6 -22 0
-11 -23 0
-16 -24 0
-21 -25 0
-12 -23 0
-17 -24 0
-22 -25 0
-18 -24 0
-23 -25 0
17 18 19 20 0
-5 -18 0
-9 -19 0
-13 -20 0
-17 -21 0
-10 -19 0
-14 -20 0
-18 -21 0
-15 -20 0
-19 -21 0
13 14 15 16 0
-4 -14 0
-7 -15 0
-10 -16 0
-13 -17 0
-8 -15 0
-11 -16 0
-14 -17 0
-12 -16 0
-15 -17 0
9 10 11 12 0
-3 -10 0
-5 -11 0
-7 -12 0
-9 -13 0
-6 -11 0
-8 -12 0
-10 -13 0
-9 -12 0
-11 -13 0
5 6 7 8 0
-2 -6 0
-3 -7 0
-4 -8 0
-5 -9 0
-4 -7 0
-5 -8 0
-6 -9 0
-6 -8 0
-7 -9 0
1 2 3 4 0
-1 -2 0
-1 -3 0
-1 -4 0
-1 -5 0
-2 -3 0
-2 -4 0
-2 -5 0
-3 -4 0
-3 -5 0
